c Random CNF formula
p cnf 15 45
-2 -11 7 0
-9 10 -15 0
-15 -10 1 0
9 -5 -3 0
5 -7 3 0
9 -8 -10 0
-12 2 1 0
-5 10 -9 0
2 11 -13 0
6 7 4 0
13 -3 -8 0
14 -15 5 0
-2 10 15 0
6 15 -12 0
13 14 -1 0
-3 5 8 0
5 9 3 0
7 -15 5 0
2 3 10 0
-4 8 -6 0
10 7 -13 0
-6 -12 -9 0
-5 -11 9 0
-13 5 12 0
12 -2 5 0
15 -14 3 0
-3 -10 11 0
-12 -4 -8 0
10 2 7 0
-5 14 -13 0
-13 2 14 0
-10 -3 -12 0
-15 13 9 0
10 -3 -14 0
-12 -7 5 0
3 8 5 0
5 4 -13 0
-6 -14 4 0
14 7 15 0
11 -1 -7 0
14 -13 3 0
-12 -5 14 0
4 10 15 0
4 12 8 0
-13 -1 -11 0
